; DUP1 SLOAD SWAP2 PUSH cw_1 SWAP2 SWAP1 => DUP1 PUSH cw_1 SWAP2 SLOAD SWAP3
(set-option :produce-proofs true)
; 
(set-info :status unknown)
(declare-fun storage_t ((_ BitVec 256) (_ BitVec 256) (_ BitVec 256) (_ BitVec 256) Int (_ BitVec 256)) (_ BitVec 256))
(declare-fun w_1 () (_ BitVec 256))
(declare-fun storage_s ((_ BitVec 256) (_ BitVec 256) (_ BitVec 256) (_ BitVec 256) Int (_ BitVec 256)) (_ BitVec 256))
(declare-fun exc_halt_t (Int) Bool)
(declare-fun exc_halt_s (Int) Bool)
(declare-fun stack_t ((_ BitVec 256) (_ BitVec 256) (_ BitVec 256) (_ BitVec 256) Int (_ BitVec 6)) (_ BitVec 256))
(declare-fun stack_s ((_ BitVec 256) (_ BitVec 256) (_ BitVec 256) (_ BitVec 256) Int (_ BitVec 6)) (_ BitVec 256))
(declare-fun sc_t (Int) (_ BitVec 6))
(declare-fun sc_s (Int) (_ BitVec 6))
(declare-fun used_gas_t ((_ BitVec 256) (_ BitVec 256) (_ BitVec 256) (_ BitVec 256) Int) Int)
(declare-fun used_gas_s ((_ BitVec 256) (_ BitVec 256) (_ BitVec 256) (_ BitVec 256) Int) Int)
(assert
 (exists ((x_0 (_ BitVec 256)) (x_1 (_ BitVec 256)) (x_SLOAD_0 (_ BitVec 256)) )(let (($x2684 (forall ((w (_ BitVec 256)) )(let ((?x1469 (storage_t x_0 x_1 x_SLOAD_0 w_1 5 w)))
 (let ((?x5226 (storage_s x_0 x_1 x_SLOAD_0 w_1 6 w)))
 (= ?x5226 ?x1469))))
 ))
 (let (($x886 (exc_halt_t 5)))
 (let (($x772 (exc_halt_s 6)))
 (let (($x889 (= $x772 $x886)))
 (let (($x2507 (forall ((n (_ BitVec 6)) )(let ((?x9524 (stack_t x_0 x_1 x_SLOAD_0 w_1 5 n)))
 (let ((?x2003 (stack_s x_0 x_1 x_SLOAD_0 w_1 6 n)))
 (let (($x7830 (= ?x2003 ?x9524)))
 (or (bvsle (sc_t 5) n) $x7830)))))
 ))
 (let ((?x919 (sc_t 5)))
 (let ((?x926 (sc_s 6)))
 (let (($x929 (= ?x926 ?x919)))
 (let ((?x5861 (used_gas_t x_0 x_1 x_SLOAD_0 w_1 0)))
 (let ((?x308 (used_gas_s x_0 x_1 x_SLOAD_0 w_1 0)))
 (let (($x715 (= ?x308 ?x5861)))
 (let (($x5021 (forall ((w (_ BitVec 256)) )(let ((?x5545 (storage_t x_0 x_1 x_SLOAD_0 w_1 0 w)))
 (let ((?x8456 (storage_s x_0 x_1 x_SLOAD_0 w_1 0 w)))
 (= ?x8456 ?x5545))))
 ))
 (let (($x56 (exc_halt_t 0)))
 (let (($x57 (exc_halt_s 0)))
 (let (($x58 (= $x57 $x56)))
 (let (($x8009 (forall ((n (_ BitVec 6)) )(let ((?x63 (sc_t 0)))
 (let (($x2525 (bvsle ?x63 n)))
 (let ((?x9859 (stack_t x_0 x_1 x_SLOAD_0 w_1 0 n)))
 (let ((?x8871 (stack_s x_0 x_1 x_SLOAD_0 w_1 0 n)))
 (let (($x1634 (= ?x8871 ?x9859)))
 (or $x1634 $x2525)))))))
 ))
 (let ((?x63 (sc_t 0)))
 (let ((?x72 (sc_s 0)))
 (let (($x73 (= ?x72 ?x63)))
 (let (($x5744 (= $x886 (or (exc_halt_t 4) (not (bvsle (_ bv0 6) (bvadd (_ bv60 6) (sc_t 4))))))))
 (let (($x5768 (forall ((w (_ BitVec 256)) )(let ((?x3250 (storage_t x_0 x_1 x_SLOAD_0 w_1 4 w)))
 (let ((?x1469 (storage_t x_0 x_1 x_SLOAD_0 w_1 5 w)))
 (= ?x1469 ?x3250))))
 ))
 (let (($x1470 (forall ((n (_ BitVec 6)) )(let ((?x6356 (stack_t x_0 x_1 x_SLOAD_0 w_1 4 n)))
 (let ((?x9524 (stack_t x_0 x_1 x_SLOAD_0 w_1 5 n)))
 (or (= ?x9524 ?x6356) (bvsle (bvadd (_ bv60 6) (sc_t 4)) n)))))
 ))
 (let (($x11055 (= (used_gas_t x_0 x_1 x_SLOAD_0 w_1 5) (+ 3 (used_gas_t x_0 x_1 x_SLOAD_0 w_1 4)))))
 (let (($x3870 (= (stack_t x_0 x_1 x_SLOAD_0 w_1 5 (bvadd (_ bv62 6) ?x919)) (stack_t x_0 x_1 x_SLOAD_0 w_1 4 (bvadd (_ bv62 6) (sc_t 4))))))
 (let (($x7099 (= (stack_t x_0 x_1 x_SLOAD_0 w_1 5 (bvadd (_ bv61 6) ?x919)) (stack_t x_0 x_1 x_SLOAD_0 w_1 4 (bvadd (_ bv61 6) (sc_t 4))))))
 (let ((?x2468 (stack_t x_0 x_1 x_SLOAD_0 w_1 4 (bvadd (_ bv63 6) (sc_t 4)))))
 (let (($x4910 (= (stack_t x_0 x_1 x_SLOAD_0 w_1 5 (bvadd (_ bv63 6) ?x919)) (stack_t x_0 x_1 x_SLOAD_0 w_1 4 (bvadd (_ bv60 6) (sc_t 4))))))
 (let (($x7722 (exc_halt_t 4)))
 (let (($x737 (= $x7722 (or (exc_halt_t 3) (not (bvsle (_ bv0 6) (bvadd (_ bv63 6) (sc_t 3))))))))
 (let (($x5570 (forall ((w (_ BitVec 256)) )(let ((?x4455 (storage_t x_0 x_1 x_SLOAD_0 w_1 3 w)))
 (let ((?x3250 (storage_t x_0 x_1 x_SLOAD_0 w_1 4 w)))
 (= ?x3250 ?x4455))))
 ))
 (let (($x5067 (forall ((n (_ BitVec 6)) )(let ((?x4486 (stack_t x_0 x_1 x_SLOAD_0 w_1 3 n)))
 (let ((?x6356 (stack_t x_0 x_1 x_SLOAD_0 w_1 4 n)))
 (or (bvsle (bvadd (_ bv63 6) (sc_t 3)) n) (= ?x6356 ?x4486)))))
 ))
 (let ((?x9856 (used_gas_t x_0 x_1 x_SLOAD_0 w_1 4)))
 (let ((?x6438 (sc_t 3)))
 (let ((?x1993 (bvadd (_ bv63 6) ?x6438)))
 (let ((?x8646 (stack_t x_0 x_1 x_SLOAD_0 w_1 3 ?x1993)))
 (let (($x6783 (exc_halt_t 3)))
 (let (($x1650 (= $x6783 (or (exc_halt_t 2) (not (bvsle (_ bv0 6) (bvadd (_ bv61 6) (sc_t 2))))))))
 (let (($x7949 (forall ((w (_ BitVec 256)) )(let ((?x10846 (storage_t x_0 x_1 x_SLOAD_0 w_1 2 w)))
 (let ((?x4455 (storage_t x_0 x_1 x_SLOAD_0 w_1 3 w)))
 (= ?x4455 ?x10846))))
 ))
 (let (($x10183 (forall ((n (_ BitVec 6)) )(let ((?x5763 (stack_t x_0 x_1 x_SLOAD_0 w_1 2 n)))
 (let ((?x4486 (stack_t x_0 x_1 x_SLOAD_0 w_1 3 n)))
 (or (= ?x4486 ?x5763) (bvsle (bvadd (_ bv61 6) (sc_t 2)) n)))))
 ))
 (let ((?x2714 (sc_t 2)))
 (let (($x5599 (= ?x6438 ?x2714)))
 (let ((?x1128 (used_gas_t x_0 x_1 x_SLOAD_0 w_1 3)))
 (let (($x9467 (= (stack_t x_0 x_1 x_SLOAD_0 w_1 3 (bvadd (_ bv62 6) ?x6438)) (stack_t x_0 x_1 x_SLOAD_0 w_1 2 (bvadd (_ bv62 6) ?x2714)))))
 (let (($x5416 (= (stack_t x_0 x_1 x_SLOAD_0 w_1 3 (bvadd (_ bv61 6) ?x6438)) (stack_t x_0 x_1 x_SLOAD_0 w_1 2 (bvadd (_ bv63 6) ?x2714)))))
 (let (($x9219 (not (= ((_ extract 6 6) (bvadd (_ bv1 7) (concat (_ bv0 1) (sc_t 1)))) (_ bv0 1)))))
 (let (($x3508 (exc_halt_t 1)))
 (let (($x3071 (exc_halt_t 2)))
 (let (($x305 (forall ((w (_ BitVec 256)) )(let ((?x3189 (storage_t x_0 x_1 x_SLOAD_0 w_1 1 w)))
 (let ((?x10846 (storage_t x_0 x_1 x_SLOAD_0 w_1 2 w)))
 (= ?x10846 ?x3189))))
 ))
 (let (($x640 (forall ((n (_ BitVec 6)) )(let ((?x3409 (stack_t x_0 x_1 x_SLOAD_0 w_1 1 n)))
 (let ((?x5763 (stack_t x_0 x_1 x_SLOAD_0 w_1 2 n)))
 (or (bvsle (sc_t 1) n) (= ?x5763 ?x3409)))))
 ))
 (let (($x1996 (= ?x2714 (bvadd (_ bv1 6) (sc_t 1)))))
 (let ((?x6931 (used_gas_t x_0 x_1 x_SLOAD_0 w_1 2)))
 (let (($x3887 (not (= ((_ extract 6 6) (bvadd (_ bv1 7) (concat (_ bv0 1) ?x63))) (_ bv0 1)))))
 (let (($x8987 (forall ((w (_ BitVec 256)) )(let ((?x5545 (storage_t x_0 x_1 x_SLOAD_0 w_1 0 w)))
 (let ((?x3189 (storage_t x_0 x_1 x_SLOAD_0 w_1 1 w)))
 (= ?x3189 ?x5545))))
 ))
 (let (($x185 (forall ((n (_ BitVec 6)) )(let ((?x9859 (stack_t x_0 x_1 x_SLOAD_0 w_1 0 n)))
 (let ((?x3409 (stack_t x_0 x_1 x_SLOAD_0 w_1 1 n)))
 (or (bvsle (bvadd (_ bv63 6) (sc_t 0)) n) (= ?x3409 ?x9859)))))
 ))
 (let ((?x8347 (sc_t 1)))
 (let (($x5258 (= ?x8347 (bvadd (_ bv1 6) ?x63))))
 (let ((?x3825 (bvadd (_ bv63 6) ?x63)))
 (let ((?x3010 (stack_t x_0 x_1 x_SLOAD_0 w_1 0 ?x3825)))
 (let (($x5670 (= $x772 (or (exc_halt_s 5) (not (bvsle (_ bv0 6) (bvadd (_ bv62 6) (sc_s 5))))))))
 (let (($x7531 (forall ((w (_ BitVec 256)) )(let ((?x5382 (storage_s x_0 x_1 x_SLOAD_0 w_1 5 w)))
 (let ((?x5226 (storage_s x_0 x_1 x_SLOAD_0 w_1 6 w)))
 (= ?x5226 ?x5382))))
 ))
 (let (($x6872 (forall ((n (_ BitVec 6)) )(let ((?x4319 (sc_s 5)))
 (let ((?x1412 (bvadd (_ bv62 6) ?x4319)))
 (let (($x10242 (bvsle ?x1412 n)))
 (let ((?x7137 (stack_s x_0 x_1 x_SLOAD_0 w_1 5 n)))
 (let ((?x2003 (stack_s x_0 x_1 x_SLOAD_0 w_1 6 n)))
 (or (= ?x2003 ?x7137) $x10242)))))))
 ))
 (let (($x4765 (= (used_gas_s x_0 x_1 x_SLOAD_0 w_1 6) (+ 3 (used_gas_s x_0 x_1 x_SLOAD_0 w_1 5)))))
 (let ((?x4319 (sc_s 5)))
 (let ((?x2994 (bvadd (_ bv63 6) ?x4319)))
 (let ((?x10958 (stack_s x_0 x_1 x_SLOAD_0 w_1 5 ?x2994)))
 (let ((?x1412 (bvadd (_ bv62 6) ?x4319)))
 (let ((?x6944 (stack_s x_0 x_1 x_SLOAD_0 w_1 5 ?x1412)))
 (let (($x11317 (exc_halt_s 5)))
 (let (($x8464 (= $x11317 (or (exc_halt_s 4) (not (bvsle (_ bv0 6) (bvadd (_ bv61 6) (sc_s 4))))))))
 (let (($x1382 (forall ((w (_ BitVec 256)) )(let ((?x6934 (storage_s x_0 x_1 x_SLOAD_0 w_1 4 w)))
 (let ((?x5382 (storage_s x_0 x_1 x_SLOAD_0 w_1 5 w)))
 (= ?x5382 ?x6934))))
 ))
 (let (($x3795 (forall ((n (_ BitVec 6)) )(let ((?x5792 (stack_s x_0 x_1 x_SLOAD_0 w_1 4 n)))
 (let ((?x7137 (stack_s x_0 x_1 x_SLOAD_0 w_1 5 n)))
 (or (bvsle (bvadd (_ bv61 6) (sc_s 4)) n) (= ?x7137 ?x5792)))))
 ))
 (let ((?x4305 (sc_s 4)))
 (let (($x8714 (= ?x4319 ?x4305)))
 (let ((?x10751 (used_gas_s x_0 x_1 x_SLOAD_0 w_1 5)))
 (let (($x6624 (= (stack_s x_0 x_1 x_SLOAD_0 w_1 5 (bvadd (_ bv61 6) ?x4319)) (stack_s x_0 x_1 x_SLOAD_0 w_1 4 (bvadd (_ bv63 6) ?x4305)))))
 (let (($x292 (exc_halt_s 3)))
 (let (($x2461 (or $x292 (not (= ((_ extract 6 6) (bvadd (_ bv1 7) (concat (_ bv0 1) (sc_s 3)))) (_ bv0 1))))))
 (let (($x7172 (exc_halt_s 4)))
 (let (($x6905 (forall ((w (_ BitVec 256)) )(let ((?x4125 (storage_s x_0 x_1 x_SLOAD_0 w_1 3 w)))
 (let ((?x6934 (storage_s x_0 x_1 x_SLOAD_0 w_1 4 w)))
 (= ?x6934 ?x4125))))
 ))
 (let (($x8357 (forall ((n (_ BitVec 6)) )(let ((?x7017 (stack_s x_0 x_1 x_SLOAD_0 w_1 3 n)))
 (let ((?x5792 (stack_s x_0 x_1 x_SLOAD_0 w_1 4 n)))
 (or (bvsle (sc_s 3) n) (= ?x5792 ?x7017)))))
 ))
 (let ((?x4335 (used_gas_s x_0 x_1 x_SLOAD_0 w_1 4)))
 (let (($x8330 (= $x292 (or (exc_halt_s 2) (not (bvsle (_ bv0 6) (bvadd (_ bv61 6) (sc_s 2))))))))
 (let (($x6319 (forall ((w (_ BitVec 256)) )(let ((?x8670 (storage_s x_0 x_1 x_SLOAD_0 w_1 2 w)))
 (let ((?x4125 (storage_s x_0 x_1 x_SLOAD_0 w_1 3 w)))
 (= ?x4125 ?x8670))))
 ))
 (let (($x3679 (forall ((n (_ BitVec 6)) )(let ((?x5657 (stack_s x_0 x_1 x_SLOAD_0 w_1 2 n)))
 (let ((?x7017 (stack_s x_0 x_1 x_SLOAD_0 w_1 3 n)))
 (let ((?x218 (sc_s 2)))
 (let ((?x861 (bvadd (_ bv61 6) ?x218)))
 (let (($x1357 (bvsle ?x861 n)))
 (or $x1357 (= ?x7017 ?x5657))))))))
 ))
 (let ((?x3113 (used_gas_s x_0 x_1 x_SLOAD_0 w_1 3)))
 (let (($x11845 (= (stack_s x_0 x_1 x_SLOAD_0 w_1 3 (bvadd (_ bv62 6) (sc_s 3))) (stack_s x_0 x_1 x_SLOAD_0 w_1 2 (bvadd (_ bv62 6) (sc_s 2))))))
 (let ((?x218 (sc_s 2)))
 (let ((?x5784 (bvadd (_ bv63 6) ?x218)))
 (let ((?x11572 (stack_s x_0 x_1 x_SLOAD_0 w_1 2 ?x5784)))
 (let (($x4363 (= (stack_s x_0 x_1 x_SLOAD_0 w_1 3 (bvadd (_ bv61 6) (sc_s 3))) ?x11572)))
 (let (($x3203 (= (stack_s x_0 x_1 x_SLOAD_0 w_1 3 (bvadd (_ bv63 6) (sc_s 3))) (stack_s x_0 x_1 x_SLOAD_0 w_1 2 (bvadd (_ bv61 6) ?x218)))))
 (let (($x247 (exc_halt_s 2)))
 (let (($x1188 (= $x247 (or (exc_halt_s 1) (not (bvsle (_ bv0 6) (bvadd (_ bv63 6) (sc_s 1))))))))
 (let (($x3144 (forall ((w (_ BitVec 256)) )(let ((?x7549 (storage_s x_0 x_1 x_SLOAD_0 w_1 1 w)))
 (let ((?x8670 (storage_s x_0 x_1 x_SLOAD_0 w_1 2 w)))
 (= ?x8670 ?x7549))))
 ))
 (let (($x1754 (forall ((n (_ BitVec 6)) )(let ((?x1391 (stack_s x_0 x_1 x_SLOAD_0 w_1 1 n)))
 (let ((?x5657 (stack_s x_0 x_1 x_SLOAD_0 w_1 2 n)))
 (or (= ?x5657 ?x1391) (bvsle (bvadd (_ bv63 6) (sc_s 1)) n)))))
 ))
 (let ((?x4985 (used_gas_s x_0 x_1 x_SLOAD_0 w_1 2)))
 (let ((?x154 (sc_s 1)))
 (let ((?x5786 (bvadd (_ bv63 6) ?x154)))
 (let ((?x7849 (stack_s x_0 x_1 x_SLOAD_0 w_1 1 ?x5786)))
 (let (($x9897 (not (= ((_ extract 6 6) (bvadd (_ bv1 7) (concat (_ bv0 1) ?x72))) (_ bv0 1)))))
 (let (($x189 (exc_halt_s 1)))
 (let (($x5088 (forall ((w (_ BitVec 256)) )(let ((?x8456 (storage_s x_0 x_1 x_SLOAD_0 w_1 0 w)))
 (let ((?x7549 (storage_s x_0 x_1 x_SLOAD_0 w_1 1 w)))
 (= ?x7549 ?x8456))))
 ))
 (let (($x8159 (forall ((n (_ BitVec 6)) )(let ((?x8871 (stack_s x_0 x_1 x_SLOAD_0 w_1 0 n)))
 (let ((?x1391 (stack_s x_0 x_1 x_SLOAD_0 w_1 1 n)))
 (or (bvsle (bvadd (_ bv63 6) (sc_s 0)) n) (= ?x1391 ?x8871)))))
 ))
 (let (($x10097 (= ?x154 (bvadd (_ bv1 6) ?x72))))
 (let ((?x11832 (bvadd (_ bv63 6) ?x72)))
 (let ((?x10263 (stack_s x_0 x_1 x_SLOAD_0 w_1 0 ?x11832)))
 (let (($x2973 (forall ((w (_ BitVec 256)) )(let (($x856 (= w (stack_s x_0 x_1 x_SLOAD_0 w_1 1 (bvadd (_ bv63 6) (sc_s 1))))))
 (let ((?x8456 (storage_s x_0 x_1 x_SLOAD_0 w_1 0 w)))
 (= ?x8456 (ite $x856 x_SLOAD_0 (_ bv0 256))))))
 ))
 (let (($x3319 (= ?x308 0)))
 (let (($x4511 (not $x57)))
 (let (($x7395 (= (stack_s x_0 x_1 x_SLOAD_0 w_1 0 (_ bv1 6)) x_1)))
 (let (($x943 (= (stack_s x_0 x_1 x_SLOAD_0 w_1 0 (_ bv0 6)) x_0)))
 (let (($x7157 (= ?x72 (_ bv2 6))))
 (and $x7157 $x943 $x7395 $x4511 $x3319 $x2973 (= ?x7849 ?x10263) (= (stack_s x_0 x_1 x_SLOAD_0 w_1 1 ?x11832) ?x10263) (= (used_gas_s x_0 x_1 x_SLOAD_0 w_1 1) (+ 3 ?x308)) $x10097 $x8159 $x5088 (= $x189 (or $x57 $x9897 (not (bvsle (_ bv0 6) ?x11832)))) (= ?x11572 (storage_s x_0 x_1 x_SLOAD_0 w_1 1 ?x7849)) (= ?x4985 (+ 200 (used_gas_s x_0 x_1 x_SLOAD_0 w_1 1))) (= ?x218 ?x154) $x1754 $x3144 $x1188 $x3203 $x4363 $x11845 (= ?x3113 (+ 3 ?x4985)) (= (sc_s 3) ?x218) $x3679 $x6319 $x8330 (= (stack_s x_0 x_1 x_SLOAD_0 w_1 4 (sc_s 3)) w_1) (= ?x4335 (+ 3 ?x3113)) (= ?x4305 (bvadd (_ bv1 6) (sc_s 3))) $x8357 $x6905 (= $x7172 $x2461) (= ?x10958 (stack_s x_0 x_1 x_SLOAD_0 w_1 4 (bvadd (_ bv61 6) ?x4305))) $x6624 (= ?x6944 (stack_s x_0 x_1 x_SLOAD_0 w_1 4 (bvadd (_ bv62 6) ?x4305))) (= ?x10751 (+ 3 ?x4335)) $x8714 $x3795 $x1382 $x8464 (= (stack_s x_0 x_1 x_SLOAD_0 w_1 6 (bvadd (_ bv63 6) ?x926)) ?x6944) (= (stack_s x_0 x_1 x_SLOAD_0 w_1 6 (bvadd (_ bv62 6) ?x926)) ?x10958) $x4765 (= ?x926 ?x4319) $x6872 $x7531 $x5670 (= (stack_t x_0 x_1 x_SLOAD_0 w_1 1 (bvadd (_ bv63 6) ?x8347)) ?x3010) (= (stack_t x_0 x_1 x_SLOAD_0 w_1 1 ?x3825) ?x3010) (= (used_gas_t x_0 x_1 x_SLOAD_0 w_1 1) (+ 3 ?x5861)) $x5258 $x185 $x8987 (= $x3508 (or $x56 $x3887 (not (bvsle (_ bv0 6) ?x3825)))) (= (stack_t x_0 x_1 x_SLOAD_0 w_1 2 ?x8347) w_1) (= ?x6931 (+ 3 (used_gas_t x_0 x_1 x_SLOAD_0 w_1 1))) $x1996 $x640 $x305 (= $x3071 (or $x3508 $x9219)) (= ?x8646 (stack_t x_0 x_1 x_SLOAD_0 w_1 2 (bvadd (_ bv61 6) ?x2714))) $x5416 $x9467 (= ?x1128 (+ 3 ?x6931)) $x5599 $x10183 $x7949 $x1650 (= ?x2468 (storage_t x_0 x_1 x_SLOAD_0 w_1 3 ?x8646)) (= ?x9856 (+ 200 ?x1128)) (= (sc_t 4) ?x6438) $x5067 $x5570 $x737 $x4910 (= (stack_t x_0 x_1 x_SLOAD_0 w_1 5 (bvadd (_ bv60 6) ?x919)) ?x2468) $x7099 $x3870 $x11055 (= ?x919 (sc_t 4)) $x1470 $x5768 $x5744 $x73 $x8009 $x58 $x5021 $x715 (not (and $x929 $x2507 $x889 $x2684))))))))))))))))))))))))))))))))))))))))))))))))))))))))))))))))))))))))))))))))))))))))))))))))))))))))))))))))))))
 )
(check-sat)
(get-proof)
